\ENCODING=ISO-8859-1
\Problem name: 

Minimize
 obj1: - 232 q_3#0 - 232 q_2#1 - 232 q_0#2 - 232 q_4#3 - 232 q_1#4
       + 12 x_2,8#36 + 12 x_8,3#37 + 8.48528137423857 x_7,0#38
       + 8.48528137423857 x_5,0#40 + 12 x_5,9#41 + 24 x_6,7#43 + 12 x_6,2#44
       + 18.9736659610103 x_0,6#45 + 8.48528137423857 x_0,9#46
       + 18.9736659610103 x_0,4#47 + 8.48528137423857 x_0,1#48 + 12 x_9,10#49
       + 8.48528137423857 x_10,0#50 + 12 x_10,9#51 + 18.9736659610103 x_3,0#52
       + 12 x_3,9#53 + 12 x_4,5#54 + 24 x_1,3#55 + 8.48528137423857 x_11,22#56
       + 8.48528137423857 x_11,12#57 + 8.48528137423857 x_11,14#58
       + 18 x_11,20#59 + 13.4164078649987 x_22,23#60
       + 13.4164078649987 x_12,13#62 + 18 x_13,11#63
       + 13.4164078649987 x_13,22#64 + 13.4164078649987 x_13,12#65
       + 13.4164078649987 x_13,14#66 + 13.4164078649987 x_17,11#68
       + 13.4164078649987 x_14,17#69 + 13.4164078649987 x_16,19#70
       + 13.4164078649987 x_15,18#71 + 13.4164078649987 x_20,15#72
       + 26.8328157299975 x_20,21#73 + 13.4164078649987 x_21,11#74
       + 13.4164078649987 x_23,11#75 + 13.4164078649987 x_23,22#76
       + 13.4164078649987 x_30,34#79 + 13.4164078649987 x_25,29#81
       + 26.8328157299975 x_25,26#82 + 13.4164078649987 x_31,35#83
       + 13.4164078649987 x_24,25#84 + 13.4164078649987 x_24,39#85
       + 8.48528137423857 x_24,28#86 + 13.4164078649987 x_24,36#87
       + 13.4164078649987 x_41,38#88 + 13.4164078649987 x_39,31#89
       + 40.2492235949962 x_39,42#90 + 18 x_26,24#91
       + 13.4164078649987 x_40,30#92 + 26.8328157299975 x_40,27#93
       + 13.4164078649987 x_27,42#94 + 26.8328157299975 x_38,42#97
       + 13.4164078649987 x_28,32#98 + 13.4164078649987 x_29,33#99
       + 18 x_32,24#100 + 13.4164078649987 x_35,42#102
       + 13.4164078649987 x_36,37#104 + 30.5941170815567 x_42,24#105
       + 8.48528137423857 x_37,24#106
Subject To
 c1:   - x_2,8#36 + x_6,2#44  = 0
 c2:   x_2,8#36 - x_8,3#37  = 0
 c3:   - x_7,0#38 - x_7,9#39 + x_6,7#43  = 0
 c4:   - x_5,0#40 - x_5,9#41 - x_5,1#42 + x_4,5#54  = 0
 c5:   - x_6,7#43 - x_6,2#44 + x_0,6#45  = 0
 c6:   x_7,0#38 + x_5,0#40 - x_0,6#45 - x_0,9#46 - x_0,4#47 - x_0,1#48
       + x_10,0#50 + x_3,0#52  = 0
 c7:   x_7,9#39 + x_5,9#41 + x_0,9#46 - x_9,10#49 + x_10,9#51 + x_3,9#53  = 0
 c8:   x_9,10#49 - x_10,0#50 - x_10,9#51  = 0
 c9:   x_8,3#37 - x_3,0#52 - x_3,9#53 + x_1,3#55  = 0
 c10:  x_0,4#47 - x_4,5#54  = 0
 c11:  x_5,1#42 + x_0,1#48 - x_1,3#55  = 0
 c12:  - x_11,22#56 - x_11,12#57 - x_11,14#58 - x_11,20#59 + x_13,11#63
       + x_17,11#68 + x_21,11#74 + x_23,11#75  = 0
 c13:  x_11,22#56 - x_22,23#60 - x_22,16#61 + x_13,22#64 + x_23,22#76  = 0
 c14:  x_11,12#57 - x_12,13#62 + x_13,12#65  = 0
 c15:  x_12,13#62 - x_13,11#63 - x_13,22#64 - x_13,12#65 - x_13,14#66
       - x_13,20#67  = 0
 c16:  - x_17,11#68 + x_14,17#69  = 0
 c17:  x_11,14#58 + x_13,14#66 - x_14,17#69  = 0
 c18:  x_22,16#61 - x_16,19#70  = 0
 c19:  - x_15,18#71 + x_20,15#72  = 0
 c20:  x_11,20#59 + x_13,20#67 - x_20,15#72 - x_20,21#73  = 0
 c21:  x_20,21#73 - x_21,11#74 + x_18,21#77  = 0
 c22:  x_22,23#60 - x_23,11#75 - x_23,22#76 + x_19,23#78  = 0
 c23:  x_15,18#71 - x_18,21#77  = 0
 c24:  x_16,19#70 - x_19,23#78  = 0
 c25:  - x_30,34#79 + x_40,30#92  = 0
 c26:  - x_25,40#80 - x_25,29#81 - x_25,26#82 + x_24,25#84  = 0
 c27:  - x_31,35#83 + x_39,31#89 + x_38,31#96  = 0
 c28:  - x_24,25#84 - x_24,39#85 - x_24,28#86 - x_24,36#87 + x_26,24#91
       + x_32,24#100 + x_42,24#105 + x_37,24#106  = 0
 c29:  - x_41,38#88 + x_36,41#103  = 0
 c30:  x_24,39#85 - x_39,31#89 - x_39,42#90  = 0
 c31:  x_25,26#82 - x_26,24#91 + x_33,26#101  = 0
 c32:  x_25,40#80 - x_40,30#92 - x_40,27#93  = 0
 c33:  x_40,27#93 - x_27,42#94 + x_34,27#95  = 0
 c34:  x_30,34#79 - x_34,27#95  = 0
 c35:  x_41,38#88 - x_38,31#96 - x_38,42#97  = 0
 c36:  x_24,28#86 - x_28,32#98 + x_37,28#107  = 0
 c37:  x_25,29#81 - x_29,33#99  = 0
 c38:  x_28,32#98 - x_32,24#100  = 0
 c39:  x_29,33#99 - x_33,26#101  = 0
 c40:  x_31,35#83 - x_35,42#102  = 0
 c41:  x_24,36#87 - x_36,41#103 - x_36,37#104  = 0
 c42:  x_39,42#90 + x_27,42#94 + x_38,42#97 + x_35,42#102 - x_42,24#105  = 0
 c43:  x_36,37#104 - x_37,24#106 - x_37,28#107  = 0
 c44:  - z_3,0#5 + x_5,1#42 + x_6,2#44 + x_0,1#48 >= 0
 c45:  - z_2,0#6 + x_0,4#47 >= 0
 c46:  - z_2,0#6 + x_11,12#57 + x_13,12#65 >= 0
 c47:  - z_2,1#7 + x_0,6#45 >= 0
 c48:  - z_2,1#7 + x_25,29#81 + x_24,28#86 + x_39,31#89 + x_40,30#92
       + x_38,31#96 + x_37,28#107 >= 0
 c49:  - z_0,0#8 + x_11,14#58 + x_22,16#61 + x_13,14#66 + x_20,15#72 >= 0
 c50:  - z_4,0#9 + x_24,25#84 >= 0
 c51:  - z_4,0#9 + x_11,20#59 + x_13,20#67 >= 0
 c52:  - z_4,1#10 + x_24,36#87 >= 0
 c53:  - z_4,1#10 + x_7,9#39 + x_5,9#41 + x_0,9#46 + x_10,9#51 + x_3,9#53 >= 0
 c54:  - z_4,1#10 + x_11,22#56 + x_13,22#64 + x_23,22#76 >= 0
 c55:  - z_1,0#11 + x_25,40#80 + x_24,39#85 + x_36,41#103 >= 0
 c56:  x_24,25#84 + x_24,39#85 + x_24,28#86 + x_24,36#87 <= 1
 c57:  x_11,22#56 + x_11,12#57 + x_11,14#58 + x_11,20#59 <= 1
 c58:  x_0,6#45 + x_0,9#46 + x_0,4#47 + x_0,1#48 <= 1
 c59:  B_38m#33 + 8.48528137423857 x_37,24#106 <= 1140
 c60:  B_39m#29 + 18 x_26,24#91 <= 1140
 c61:  B_10m#35 + 30.5941170815567 x_42,24#105 <= 1140
 c62:  B_22m#31 + 18 x_32,24#100 <= 1140
 c63:  - B_38p#32 + 13.4164078649987 x_24,36#87 + 13.4164078649987 x_37,24#106
       <= -422
 c64:  - B_39p#28 + 13.4164078649987 x_24,25#84 + 13.4164078649987 x_26,24#91
       <= -422
 c65:  - B_10p#34 + 13.4164078649987 x_24,39#85 + 13.4164078649987 x_42,24#105
       <= -422
 c66:  - B_22p#30 + 8.48528137423857 x_24,28#86 + 8.48528137423857 x_32,24#100
       <= -422
 c67:  B_19m#25 + 18 x_13,11#63 <= 1140
 c68:  B_5m#21 + 13.4164078649987 x_17,11#68 <= 1140
 c69:  B_36m#23 + 13.4164078649987 x_21,11#74 <= 1140
 c70:  B_42m#27 + 13.4164078649987 x_23,11#75 <= 1140
 c71:  - B_19p#24 + 8.48528137423857 x_11,12#57 + 8.48528137423857 x_13,11#63
       <= -422
 c72:  - B_5p#20 + 8.48528137423857 x_11,14#58 + 8.48528137423857 x_17,11#68
       <= -422
 c73:  - B_36p#22 + 18 x_11,20#59 + 18 x_21,11#74 <= -422
 c74:  - B_42p#26 + 8.48528137423857 x_11,22#56 + 8.48528137423857 x_23,11#75
       <= -422
 c75:  B_23m#19 + 8.48528137423857 x_7,0#38 <= 1140
 c76:  B_25m#17 + 8.48528137423857 x_5,0#40 <= 1140
 c77:  B_37m#13 + 8.48528137423857 x_10,0#50 <= 1140
 c78:  B_29m#15 + 18.9736659610103 x_3,0#52 <= 1140
 c79:  - B_23p#18 + 18.9736659610103 x_7,0#38 + 18.9736659610103 x_0,6#45
       <= -422
 c80:  - B_25p#16 + 18.9736659610103 x_5,0#40 + 18.9736659610103 x_0,4#47
       <= -422
 c81:  - B_37p#12 + 8.48528137423857 x_0,9#46 + 8.48528137423857 x_10,0#50
       <= -422
 c82:  - B_29p#14 + 8.48528137423857 x_0,1#48 + 8.48528137423857 x_3,0#52
       <= -422
 c83:  B_37p#12 - B_37m#13 + 1140 x_9,10#49 <= 1126
 c84:  - B_37p#12 + B_37m#13 + 1140 x_10,9#51 <= 1126
 c85:  B_29p#14 - B_23m#19 + 1140 x_2,8#36 <= 1126
 c86:  B_29p#14 - B_29m#15 + 1140 x_1,3#55 <= 1114
 c87:  - B_37p#12 + B_29m#15 + 1140 x_3,9#53 <= 1126
 c88:  B_25p#16 - B_25m#17 + 1140 x_4,5#54 <= 1126
 c89:  - B_37p#12 + B_25m#17 + 1140 x_5,9#41 <= 1126
 c90:  - B_29p#14 + B_25m#17 + 1140 x_5,1#42 <= 1140
 c91:  B_23p#18 - B_23m#19 + 1140 x_6,7#43 <= 1114
 c92:  - B_29p#14 + B_23p#18 + 1140 x_6,2#44 <= 1126
 c93:  - B_37p#12 + B_23m#19 + 1140 x_7,9#39 <= 1140
 c94:  - B_29m#15 + B_23m#19 + 1140 x_8,3#37 <= 1126
 c95:  B_5p#20 - B_5m#21 + 1140 x_14,17#69 + 1140 x_16,19#70 + 1140 x_15,18#71
       <= 1124.583592135
 c96:  B_5m#21 - B_36m#23 + 1140 x_18,21#77 <= 1140
 c97:  B_5m#21 - B_42m#27 + 1140 x_19,23#78 <= 1140
 c98:  - B_5p#20 + B_36p#22 + 1140 x_20,15#72 <= 1124.583592135
 c99:  B_36p#22 - B_36m#23 + 1140 x_20,21#73 <= 1111.16718427
 c100: B_19p#24 - B_19m#25 + 1140 x_12,13#62 <= 1124.583592135
 c101: B_19m#25 - B_42p#26 + 1140 x_13,22#64 <= 1124.583592135
 c102: - B_19p#24 + B_19m#25 + 1140 x_13,12#65 <= 1124.583592135
 c103: - B_5p#20 + B_19m#25 + 1140 x_13,14#66 <= 1124.583592135
 c104: - B_36p#22 + B_19m#25 + 1140 x_13,20#67 <= 1140
 c105: B_42p#26 - B_42m#27 + 1140 x_22,23#60 <= 1124.583592135
 c106: - B_5p#20 + B_42p#26 + 1140 x_22,16#61 <= 1140
 c107: - B_42p#26 + B_42m#27 + 1140 x_23,22#76 <= 1124.583592135
 c108: B_39p#28 - B_10p#34 + 1140 x_25,40#80 <= 1140
 c109: B_39p#28 - B_22p#30 + 1140 x_25,29#81 <= 1124.583592135
 c110: B_39p#28 - B_39m#29 + 1140 x_25,26#82 <= 1111.16718427
 c111: B_39m#29 - B_10m#35 + 1140 x_27,42#94 <= 1124.583592135
 c112: B_22p#30 - B_22m#31 + 1140 x_30,34#79 + 1140 x_31,35#83
       + 1140 x_28,32#98 + 1140 x_29,33#99 <= 1124.583592135
 c113: - B_39m#29 + B_22m#31 + 1140 x_34,27#95 + 1140 x_33,26#101 <= 1140
 c114: B_22m#31 - B_10m#35 + 1140 x_35,42#102 <= 1124.583592135
 c115: B_38p#32 - B_10p#34 + 1140 x_36,41#103 <= 1140
 c116: B_38p#32 - B_38m#33 + 1140 x_36,37#104 <= 1124.583592135
 c117: - B_22p#30 + B_38m#33 + 1140 x_38,31#96 + 1140 x_37,28#107 <= 1140
 c118: B_38m#33 - B_10m#35 + 1140 x_38,42#97 <= 1111.16718427
 c119: - B_22p#30 + B_10p#34 + 1140 x_39,31#89 + 1140 x_40,30#92
       <= 1124.583592135
 c120: - B_39m#29 + B_10p#34 + 1140 x_40,27#93 <= 1111.16718427
 c121: - B_38m#33 + B_10p#34 + 1140 x_41,38#88 <= 1124.583592135
 c122: B_10p#34 - B_10m#35 + 1140 x_39,42#90 <= 1097.750776405
 c123: B_29p#14 >= 482
 c124: B_29p#14 <= 497
 c125: - q_3#0 + z_3,0#5  = 0
 c126: B_25p#16 >= 482
 c127: B_25p#16 <= 497
 c128: - B_25m#17 + B_19p#24 >= 0
 c129: B_23p#18 >= 482
 c130: B_23p#18 <= 497
 c131: - B_23m#19 + B_22p#30 >= 0
 c132: - q_2#1 + z_2,0#6 + z_2,1#7  = 0
 c133: B_5p#20 >= 537
 c134: B_5p#20 <= 552
 c135: - q_0#2 + z_0,0#8  = 0
 c136: B_39p#28 >= 492
 c137: B_39p#28 <= 507
 c138: B_36p#22 - B_39m#29 >= 0
 c139: B_38p#32 >= 492
 c140: B_38p#32 <= 507
 c141: B_37p#12 - B_38m#33 >= 0
 c142: - B_37m#13 + B_42p#26 >= 0
 c143: - q_4#3 + z_4,0#9 + z_4,1#10  = 0
 c144: B_10p#34 >= 502
 c145: B_10p#34 <= 517
 c146: - q_1#4 + z_1,0#11  = 0
Bounds
 0 <= q_3#0 <= 1
 0 <= q_2#1 <= 1
 0 <= q_0#2 <= 1
 0 <= q_4#3 <= 1
 0 <= q_1#4 <= 1
 0 <= z_3,0#5 <= 1
 0 <= z_2,0#6 <= 1
 0 <= z_2,1#7 <= 1
 0 <= z_0,0#8 <= 1
 0 <= z_4,0#9 <= 1
 0 <= z_4,1#10 <= 1
 0 <= z_1,0#11 <= 1
 0 <= x_2,8#36 <= 1
 0 <= x_8,3#37 <= 1
 0 <= x_7,0#38 <= 1
 0 <= x_7,9#39 <= 1
 0 <= x_5,0#40 <= 1
 0 <= x_5,9#41 <= 1
 0 <= x_5,1#42 <= 1
 0 <= x_6,7#43 <= 1
 0 <= x_6,2#44 <= 1
 0 <= x_0,6#45 <= 1
 0 <= x_0,9#46 <= 1
 0 <= x_0,4#47 <= 1
 0 <= x_0,1#48 <= 1
 0 <= x_9,10#49 <= 1
 0 <= x_10,0#50 <= 1
 0 <= x_10,9#51 <= 1
 0 <= x_3,0#52 <= 1
 0 <= x_3,9#53 <= 1
 0 <= x_4,5#54 <= 1
 0 <= x_1,3#55 <= 1
 0 <= x_11,22#56 <= 1
 0 <= x_11,12#57 <= 1
 0 <= x_11,14#58 <= 1
 0 <= x_11,20#59 <= 1
 0 <= x_22,23#60 <= 1
 0 <= x_22,16#61 <= 1
 0 <= x_12,13#62 <= 1
 0 <= x_13,11#63 <= 1
 0 <= x_13,22#64 <= 1
 0 <= x_13,12#65 <= 1
 0 <= x_13,14#66 <= 1
 0 <= x_13,20#67 <= 1
 0 <= x_17,11#68 <= 1
 0 <= x_14,17#69 <= 1
 0 <= x_16,19#70 <= 1
 0 <= x_15,18#71 <= 1
 0 <= x_20,15#72 <= 1
 0 <= x_20,21#73 <= 1
 0 <= x_21,11#74 <= 1
 0 <= x_23,11#75 <= 1
 0 <= x_23,22#76 <= 1
 0 <= x_18,21#77 <= 1
 0 <= x_19,23#78 <= 1
 0 <= x_30,34#79 <= 1
 0 <= x_25,40#80 <= 1
 0 <= x_25,29#81 <= 1
 0 <= x_25,26#82 <= 1
 0 <= x_31,35#83 <= 1
 0 <= x_24,25#84 <= 1
 0 <= x_24,39#85 <= 1
 0 <= x_24,28#86 <= 1
 0 <= x_24,36#87 <= 1
 0 <= x_41,38#88 <= 1
 0 <= x_39,31#89 <= 1
 0 <= x_39,42#90 <= 1
 0 <= x_26,24#91 <= 1
 0 <= x_40,30#92 <= 1
 0 <= x_40,27#93 <= 1
 0 <= x_27,42#94 <= 1
 0 <= x_34,27#95 <= 1
 0 <= x_38,31#96 <= 1
 0 <= x_38,42#97 <= 1
 0 <= x_28,32#98 <= 1
 0 <= x_29,33#99 <= 1
 0 <= x_32,24#100 <= 1
 0 <= x_33,26#101 <= 1
 0 <= x_35,42#102 <= 1
 0 <= x_36,41#103 <= 1
 0 <= x_36,37#104 <= 1
 0 <= x_42,24#105 <= 1
 0 <= x_37,24#106 <= 1
 0 <= x_37,28#107 <= 1
Binaries
 q_3#0  q_2#1  q_0#2  q_4#3  q_1#4  z_3,0#5  z_2,0#6  z_2,1#7  z_0,0#8 
 z_4,0#9  z_4,1#10  z_1,0#11  x_2,8#36  x_8,3#37  x_7,0#38  x_7,9#39  x_5,0#40 
 x_5,9#41  x_5,1#42  x_6,7#43  x_6,2#44  x_0,6#45  x_0,9#46  x_0,4#47 
 x_0,1#48  x_9,10#49  x_10,0#50  x_10,9#51  x_3,0#52  x_3,9#53  x_4,5#54 
 x_1,3#55  x_11,22#56  x_11,12#57  x_11,14#58  x_11,20#59  x_22,23#60 
 x_22,16#61  x_12,13#62  x_13,11#63  x_13,22#64  x_13,12#65  x_13,14#66 
 x_13,20#67  x_17,11#68  x_14,17#69  x_16,19#70  x_15,18#71  x_20,15#72 
 x_20,21#73  x_21,11#74  x_23,11#75  x_23,22#76  x_18,21#77  x_19,23#78 
 x_30,34#79  x_25,40#80  x_25,29#81  x_25,26#82  x_31,35#83  x_24,25#84 
 x_24,39#85  x_24,28#86  x_24,36#87  x_41,38#88  x_39,31#89  x_39,42#90 
 x_26,24#91  x_40,30#92  x_40,27#93  x_27,42#94  x_34,27#95  x_38,31#96 
 x_38,42#97  x_28,32#98  x_29,33#99  x_32,24#100  x_33,26#101  x_35,42#102 
 x_36,41#103  x_36,37#104  x_42,24#105  x_37,24#106  x_37,28#107 
End
